(set-info :Origin "This instance was generated by: BanditFuzz-- an RL fuzzer for SMT solvers" )
(set-info :Author "Joe Scott, Fed Mora, Vijay Ganesh" )
(set-info :Contact "Joe Scott, joseph.scott@uwaterloo.ca")
(set-logic QF_BV)
(declare-const bool_0 Bool)
(declare-const bool_1 Bool)
(declare-const bool_2 Bool)
(declare-const bool_3 Bool)
(declare-const bool_4 Bool)
(declare-const bv_0 (_ BitVec 32))
(declare-const bv_1 (_ BitVec 32))
(declare-const bv_2 (_ BitVec 32))
(declare-const bv_3 (_ BitVec 32))
(declare-const bv_4 (_ BitVec 32))
(assert (not (bvsgt (bvurem #x3e164100  #x2dd523c0 ) (bvsdiv #x6a6e9d01  #x9e3da3ec ))))
(assert (bvslt (bvashr (bvlshr bv_1 #x7f1758da ) (bvlshr #x548d4451  #xcb501c5d )) (bvxnor (bvsub bv_0 #x0f3d0c6d ) (bvsub #x617a060a  #x20a84193 ))))
(assert (bvugt (bvand (bvor #x0f5da2e3  #xed9f869b ) (bvlshr bv_4 bv_1)) (bvand (bvsdiv #x544f2220  #x98a8d615 ) (bvurem #xf5348e9d  bv_1))))
(assert (and (xor (and true bool_4) (bvugt bv_4 #xbab64ac3 )) (bvsgt (bvurem bv_4 bv_0) (bvlshr #x218a578a  bv_2))))
(assert (bvugt (bvurem (bvadd #xfe8d9a17  #x73cd083b ) (bvashr #x45535434  #xd99e00da )) (bvsdiv (bvnor bv_3 #xde9057fa ) (bvshl bv_0 #xfaef1d6a ))))
(check-sat)
(exit)
